WARNING: for repeatability, setting FPU to use double precision
============================[ Problem Statistics ]=============================
|                                                                             |
|  Number of variables:            50                                         |
|  Number of clauses:             218                                         |
|  Parse time:                   0.00 s                                       |
|                                                                             |
============================[ Search Statistics ]==============================
| Conflicts |          ORIGINAL         |          LEARNT          | Progress |
|           |    Vars  Clauses Literals |    Limit  Clauses Lit/Cl |          |
===============================================================================
===============================================================================
restarts              : 1
conflicts             : 59             (39865 /sec)
decisions             : 68             (0.00 % random) (45946 /sec)
propagations          : 789            (533108 /sec)
conflict literals     : 203            (20.08 % deleted)
Memory used           : 20.00 MB
CPU time              : 0.00148 s

UNSATISFIABLE
